param set_len = 18;
param target = 714570;
param values := [0] 98337 [1] 63546 [2] 7562 [3] 110693 [4] 120392 [5] 83912 [6] 48805 [7] 15222 [8] 38553 [9] 5113 [10] 48843 [11] 59402 [12] 8721 [13] 116151 [14] 43244 [15] 52212 [16] 125558 [17] 73945 ;
